# Solution for model problem_
# Objective value = 2.8420014984783530e+05
x(0_0) 1
x(0_1) 0
x(0_2) 0
x(0_3) 0
x(0_4) 0
x(0_5) 0
x(0_6) 0
x(0_7) 0
x(0_8) 0
x(0_9) 0
x(0_10) 0
x(0_11) 0
x(0_12) 0
x(0_13) 0
x(0_14) 0
x(0_15) 0
x(0_16) 0
x(0_17) 0
x(0_18) 0
x(0_19) 0
x(1_20) 0
x(1_21) 0
x(1_22) 0
x(1_23) 0
x(1_24) 0
x(1_25) 0
x(1_26) 0
x(1_27) 0
x(1_28) 1
x(1_29) 0
x(1_30) 0
x(2_31) 1
x(2_32) 0
x(2_33) 0
x(2_34) 0
x(2_35) 0
x(2_36) 0
x(2_37) 0
x(2_38) 0
x(2_39) 0
x(2_40) 0
x(2_41) 0
x(2_42) 0
x(2_43) 0
x(2_44) 0
x(2_45) 0
x(3_46) 0
x(3_47) 1
x(3_48) 0
x(3_49) 0
x(3_50) 0
x(3_51) 0
x(3_52) 0
x(3_53) 0
x(3_54) 0
x(3_55) 0
x(3_56) 0
x(3_57) 0
x(3_58) 0
x(3_59) 0
x(3_60) 0
x(4_61) 0
x(4_62) 0
x(4_63) 0
x(4_64) 0
x(4_65) 1
x(4_66) 0
x(4_67) 0
x(4_68) 0
x(4_69) 0
x(4_70) 0
x(4_71) 0
x(4_72) 0
x(5_73) 0
x(5_74) 1
x(5_75) 0
x(5_76) 0
x(5_77) 0
x(5_78) 0
x(5_79) 0
x(5_80) 0
x(5_81) 0
x(5_82) 0
x(5_83) 0
x(5_84) 0
x(5_85) 0
x(5_86) 0
x(6_87) 0
x(6_88) 0
x(6_89) 0
x(6_90) 0
x(6_91) 0
x(6_92) 0
x(6_93) 0
x(6_94) 0
x(6_95) 0
x(6_96) 0
x(6_97) 0
x(6_98) 0
x(6_99) 0
x(6_100) 0
x(6_101) 0
x(6_102) 0
x(6_103) 1
x(6_104) 0
x(7_105) 0
x(7_106) 0
x(7_107) 0
x(7_108) 0
x(7_109) 0
x(7_110) 0
x(7_111) 0
x(7_112) 0
x(7_113) 0
x(7_114) 0
x(7_115) 1
x(8_116) 0
x(8_117) 1
x(8_118) 0
x(8_119) 0
x(8_120) 0
x(8_121) 0
x(8_122) 0
x(8_123) 0
x(8_124) 0
x(8_125) 0
x(9_126) 0
x(9_127) 0
x(9_128) 0
x(9_129) 0
x(9_130) 0
x(9_131) 0
x(9_132) 0
x(9_133) 0
x(9_134) 0
x(9_135) 0
x(9_136) 1
x(9_137) 0
x(9_138) 0
x(9_139) 0
x(10_140) 0
x(10_141) 0
x(10_142) 0
x(10_143) 0
x(10_144) 0
x(10_145) 0
x(10_146) 0
x(10_147) 0
x(10_148) 0
x(10_149) 0
x(10_150) 0
x(10_151) 1
x(10_152) 0
x(10_153) 0
x(11_154) 0
x(11_155) 0
x(11_156) 0
x(11_157) 0
x(11_158) 0
x(11_159) 0
x(11_160) 0
x(11_161) 0
x(11_162) 0
x(11_163) 0
x(11_164) 0
x(11_165) 1
x(11_166) 0
x(11_167) 0
x(11_168) 0
x(11_169) 0
x(11_170) 0
x(12_171) 1
x(12_172) 0
x(12_173) 0
x(12_174) 0
x(12_175) 0
x(12_176) 0
x(12_177) 0
x(12_178) 0
x(12_179) 0
x(12_180) 0
x(12_181) 0
x(12_182) 0
x(12_183) 0
x(12_184) 0
x(13_185) 0
x(13_186) 0
x(13_187) 0
x(13_188) 0
x(13_189) 0
x(13_190) 0
x(13_191) 0
x(13_192) 1
x(13_193) 0
x(13_194) 0
x(14_195) 0
x(14_196) 0
x(14_197) 0
x(14_198) 0
x(14_199) 0
x(14_200) 0
x(14_201) 0
x(14_202) 0
x(14_203) 0
x(14_204) 0
x(14_205) 0
x(14_206) 1
x(14_207) 0
x(15_208) 0
x(15_209) 0
x(15_210) 1
x(15_211) 0
x(15_212) 0
x(15_213) 0
x(15_214) 0
x(15_215) 0
x(15_216) 0
x(15_217) 0
x(15_218) 0
x(15_219) 0
x(16_220) 0
x(16_221) 0
x(16_222) 0
x(16_223) 0
x(16_224) 1
x(16_225) 0
x(16_226) 0
x(16_227) 0
x(16_228) 0
x(16_229) 0
x(16_230) 0
x(16_231) 0
x(16_232) 0
x(16_233) 0
x(16_234) 0
x(17_235) 0
x(17_236) 0
x(17_237) 0
x(17_238) 1
x(17_239) 0
x(17_240) 0
x(17_241) 0
x(17_242) 0
x(17_243) 0
x(17_244) 0
x(18_245) 0
x(18_246) 0
x(18_247) 0
x(18_248) 0
x(18_249) 0
x(18_250) 0
x(18_251) 0
x(18_252) 0
x(18_253) 0
x(18_254) 0
x(18_255) 0
x(18_256) 1
x(19_257) 0
x(19_258) 0
x(19_259) 0
x(19_260) 0
x(19_261) 0
x(19_262) 0
x(19_263) 0
x(19_264) 0
x(19_265) 0
x(19_266) 0
x(19_267) 0
x(19_268) 0
x(19_269) 0
x(19_270) 1
x(19_271) 0
x(19_272) 0
x(19_273) 0
x(20_274) 0
x(20_275) 0
x(20_276) 1
x(20_277) 0
x(20_278) 0
x(20_279) 0
x(20_280) 0
x(20_281) 0
x(20_282) 0
x(20_283) 0
x(20_284) 0
x(20_285) 0
x(20_286) 0
x(20_287) 0
x(21_288) 0
x(21_289) 0
x(21_290) 0
x(21_291) 0
x(21_292) 0
x(21_293) 0
x(21_294) 0
x(21_295) 1
x(21_296) 0
x(21_297) 0
x(21_298) 0
x(21_299) 0
x(21_300) 0
x(22_301) 0
x(22_302) 0
x(22_303) 1
x(22_304) 0
x(22_305) 0
x(22_306) 0
x(22_307) 0
x(22_308) 0
x(22_309) 0
x(22_310) 0
x(22_311) 0
x(22_312) 0
x(22_313) 0
x(22_314) 0
x(22_315) 0
x(22_316) 0
x(23_317) 0
x(23_318) 0
x(23_319) 0
x(23_320) 0
x(23_321) 0
x(23_322) 0
x(23_323) 0
x(23_324) 0
x(23_325) 0
x(23_326) 0
x(23_327) 0
x(23_328) 0
x(23_329) 1
x(23_330) 0
x(23_331) 0
x(23_332) 0
x(23_333) 0
x(23_334) 0
x(24_335) 1
x(24_336) 0
x(24_337) 0
x(24_338) 0
x(24_339) 0
x(24_340) 0
x(24_341) 0
x(24_342) 0
x(24_343) 0
x(24_344) 0
x(24_345) 0
x(24_346) 0
x(24_347) 0
x(24_348) 0
x(24_349) 0
x(24_350) 0
x(25_351) 0
x(25_352) 0
x(25_353) 0
x(25_354) 0
x(25_355) 0
x(25_356) 0
x(25_357) 0
x(25_358) 0
x(25_359) 0
x(25_360) 0
x(25_361) 0
x(25_362) 0
x(25_363) 0
x(25_364) 1
x(25_365) 0
x(26_366) 0
x(26_367) 0
x(26_368) 0
x(26_369) 0
x(26_370) 0
x(26_371) 0
x(26_372) 0
x(26_373) 0
x(26_374) 1
x(26_375) 0
x(26_376) 0
x(26_377) 0
x(26_378) 0
x(26_379) 0
x(27_380) 0
x(27_381) 0
x(27_382) 0
x(27_383) 0
x(27_384) 0
x(27_385) 0
x(27_386) 0
x(27_387) 0
x(27_388) 0
x(27_389) 0
x(27_390) 1
x(27_391) 0
x(28_392) 0
x(28_393) 0
x(28_394) 1
x(28_395) 0
x(28_396) 0
x(28_397) 0
x(28_398) 0
x(28_399) 0
x(28_400) 0
x(28_401) 0
x(28_402) 0
x(28_403) 0
x(28_404) 0
x(28_405) 0
x(28_406) 0
x(28_407) 0
x(28_408) 0
x(28_409) 0
x(29_410) 0
x(29_411) 0
x(29_412) 0
x(29_413) 0
x(29_414) 0
x(29_415) 0
x(29_416) 0
x(29_417) 0
x(29_418) 0
x(29_419) 0
x(29_420) 1
x(29_421) 0
x(29_422) 0
x(29_423) 0
x(29_424) 0
x(29_425) 0
x(29_426) 0
x(29_427) 0
x(29_428) 0
x(29_429) 0
x(30_430) 0
x(30_431) 0
x(30_432) 0
x(30_433) 0
x(30_434) 0
x(30_435) 0
x(30_436) 0
x(30_437) 0
x(30_438) 0
x(30_439) 1
x(30_440) 0
x(30_441) 0
x(30_442) 0
x(31_443) 0
x(31_444) 0
x(31_445) 0
x(31_446) 0
x(31_447) 0
x(31_448) 0
x(31_449) 0
x(31_450) 1
x(31_451) 0
x(31_452) 0
x(32_453) 0
x(32_454) 0
x(32_455) 0
x(32_456) 0
x(32_457) 1
x(32_458) 0
x(32_459) 0
x(32_460) 0
x(32_461) 0
x(32_462) 0
x(32_463) 0
x(32_464) 0
x(32_465) 0
x(32_466) 0
x(32_467) 0
x(32_468) 0
x(33_469) 0
x(33_470) 0
x(33_471) 0
x(33_472) 0
x(33_473) 0
x(33_474) 0
x(33_475) 0
x(33_476) 0
x(33_477) 1
x(33_478) 0
x(33_479) 0
x(33_480) 0
x(34_481) 0
x(34_482) 0
x(34_483) 0
x(34_484) 1
x(34_485) 0
x(34_486) 0
x(34_487) 0
x(34_488) 0
x(34_489) 0
x(34_490) 0
x(34_491) 0
x(34_492) 0
x(34_493) 0
x(34_494) 0
x(34_495) 0
x(34_496) 0
x(34_497) 0
x(35_498) 0
x(35_499) 0
x(35_500) 1
x(35_501) 0
x(35_502) 0
x(35_503) 0
x(35_504) 0
x(35_505) 0
x(35_506) 0
x(35_507) 0
x(35_508) 0
x(35_509) 0
x(35_510) 0
x(35_511) 0
x(35_512) 0
x(35_513) 0
x(35_514) 0
x(36_515) 0
x(36_516) 0
x(36_517) 1
x(36_518) 0
x(36_519) 0
x(36_520) 0
x(36_521) 0
x(36_522) 0
x(36_523) 0
x(36_524) 0
x(36_525) 0
x(36_526) 0
x(36_527) 0
x(36_528) 0
x(36_529) 0
x(36_530) 0
x(37_531) 0
x(37_532) 0
x(37_533) 0
x(37_534) 1
x(37_535) 0
x(37_536) 0
x(37_537) 0
x(37_538) 0
x(37_539) 0
x(37_540) 0
x(38_541) 1
x(38_542) 0
x(38_543) 0
x(38_544) 0
x(38_545) 0
x(38_546) 0
x(38_547) 0
x(38_548) 0
x(38_549) 0
x(38_550) 0
x(38_551) 0
x(38_552) 0
x(38_553) 0
x(38_554) 0
x(38_555) 0
x(38_556) 0
x(38_557) 0
x(38_558) 0
x(39_559) 0
x(39_560) 0
x(39_561) 0
x(39_562) 0
x(39_563) 1
x(39_564) 0
x(39_565) 0
x(39_566) 0
x(39_567) 0
x(39_568) 0
x(39_569) 0
x(39_570) 0
x(39_571) 0
x(39_572) 0
x(39_573) 0
x(39_574) 0
x(39_575) 0
x(39_576) 0
x(40_577) 0
x(40_578) 0
x(40_579) 1
x(40_580) 0
x(40_581) 0
x(40_582) 0
x(40_583) 0
x(40_584) 0
x(40_585) 0
x(40_586) 0
x(41_587) 0
x(41_588) 0
x(41_589) 0
x(41_590) 0
x(41_591) 0
x(41_592) 0
x(41_593) 0
x(41_594) 0
x(41_595) 1
x(41_596) 0
x(42_597) 0
x(42_598) 0
x(42_599) 0
x(42_600) 0
x(42_601) 0
x(42_602) 0
x(42_603) 0
x(42_604) 0
x(42_605) 0
x(42_606) 0
x(42_607) 0
x(42_608) 0
x(42_609) 0
x(42_610) 1
x(42_611) 0
x(42_612) 0
x(42_613) 0
x(42_614) 0
x(43_615) 0
x(43_616) 0
x(43_617) 0
x(43_618) 0
x(43_619) 0
x(43_620) 0
x(43_621) 0
x(43_622) 0
x(43_623) 0
x(43_624) 0
x(43_625) 0
x(43_626) 0
x(43_627) 0
x(43_628) 1
x(43_629) 0
x(43_630) 0
x(43_631) 0
x(43_632) 0
x(43_633) 0
x(44_634) 1
x(44_635) 0
x(44_636) 0
x(44_637) 0
x(44_638) 0
x(44_639) 0
x(44_640) 0
x(44_641) 0
x(44_642) 0
x(44_643) 0
x(44_644) 0
x(44_645) 0
x(44_646) 0
x(44_647) 0
x(44_648) 0
x(44_649) 0
x(44_650) 0
x(44_651) 0
x(45_652) 0
x(45_653) 0
x(45_654) 0
x(45_655) 0
x(45_656) 0
x(45_657) 0
x(45_658) 0
x(45_659) 0
x(45_660) 0
x(45_661) 0
x(45_662) 0
x(45_663) 0
x(45_664) 1
x(45_665) 0
x(45_666) 0
x(45_667) 0
x(45_668) 0
x(45_669) 0
x(46_670) 0
x(46_671) 0
x(46_672) 0
x(46_673) 0
x(46_674) 0
x(46_675) 0
x(46_676) 0
x(46_677) 0
x(46_678) 1
x(46_679) 0
x(46_680) 0
x(47_681) 1
x(47_682) 0
x(47_683) 0
x(47_684) 0
x(47_685) 0
x(47_686) 0
x(47_687) 0
x(47_688) 0
x(47_689) 0
x(47_690) 0
x(47_691) 0
x(48_692) 0
x(48_693) 0
x(48_694) 0
x(48_695) 0
x(48_696) 0
x(48_697) 0
x(48_698) 0
x(48_699) 0
x(48_700) 0
x(48_701) 0
x(48_702) 0
x(48_703) 0
x(48_704) 0
x(48_705) 0
x(48_706) 0
x(48_707) 0
x(48_708) 1
x(48_709) 0
x(48_710) 0
x(48_711) 0
x(49_712) 0
x(49_713) 0
x(49_714) 0
x(49_715) 0
x(49_716) 0
x(49_717) 0
x(49_718) 0
x(49_719) 0
x(49_720) 0
x(49_721) 0
x(49_722) 0
x(49_723) 1
x(49_724) 0
x(49_725) 0
x(49_726) 0
x(49_727) 0
x(50_728) 0
x(50_729) 0
x(50_730) 0
x(50_731) 0
x(50_732) 0
x(50_733) 0
x(50_734) 0
x(50_735) 0
x(50_736) 0
x(50_737) 0
x(50_738) 0
x(50_739) 1
x(50_740) 0
x(51_741) 0
x(51_742) 0
x(51_743) 0
x(51_744) 0
x(51_745) 0
x(51_746) 0
x(51_747) 1
x(51_748) 0
x(51_749) 0
x(51_750) 0
x(51_751) 0
x(51_752) 0
x(52_753) 0
x(52_754) 0
x(52_755) 0
x(52_756) 0
x(52_757) 0
x(52_758) 0
x(52_759) 0
x(52_760) 0
x(52_761) 0
x(52_762) 0
x(52_763) 0
x(52_764) 0
x(52_765) 1
x(52_766) 0
x(52_767) 0
x(52_768) 0
x(53_769) 0
x(53_770) 0
x(53_771) 0
x(53_772) 0
x(53_773) 0
x(53_774) 0
x(53_775) 0
x(53_776) 0
x(53_777) 0
x(53_778) 0
x(53_779) 0
x(53_780) 0
x(53_781) 1
x(54_782) 0
x(54_783) 0
x(54_784) 0
x(54_785) 0
x(54_786) 0
x(54_787) 0
x(54_788) 1
x(54_789) 0
x(54_790) 0
x(54_791) 0
x(54_792) 0
x(54_793) 0
x(54_794) 0
x(54_795) 0
x(54_796) 0
x(55_797) 0
x(55_798) 0
x(55_799) 0
x(55_800) 0
x(55_801) 0
x(55_802) 0
x(55_803) 0
x(55_804) 0
x(55_805) 0
x(55_806) 0
x(55_807) 0
x(55_808) 0
x(55_809) 0
x(55_810) 1
x(55_811) 0
x(55_812) 0
x(55_813) 0
x(56_814) 0
x(56_815) 0
x(56_816) 0
x(56_817) 0
x(56_818) 0
x(56_819) 0
x(56_820) 0
x(56_821) 0
x(56_822) 0
x(56_823) 0
x(56_824) 0
x(56_825) 0
x(56_826) 0
x(56_827) 0
x(56_828) 1
x(56_829) 0
x(56_830) 0
x(56_831) 0
x(56_832) 0
x(56_833) 0
x(57_834) 0
x(57_835) 1
x(57_836) 0
x(57_837) 0
x(57_838) 0
x(57_839) 0
x(57_840) 0
x(57_841) 0
x(57_842) 0
x(57_843) 0
x(57_844) 0
x(57_845) 0
x(57_846) 0
x(57_847) 0
x(57_848) 0
x(57_849) 0
x(57_850) 0
x(57_851) 0
x(58_852) 0
x(58_853) 0
x(58_854) 0
x(58_855) 0
x(58_856) 1
x(58_857) 0
x(58_858) 0
x(58_859) 0
x(58_860) 0
x(58_861) 0
x(58_862) 0
x(58_863) 0
x(58_864) 0
x(58_865) 0
x(58_866) 0
x(58_867) 0
x(58_868) 0
x(58_869) 0
x(58_870) 0
x(58_871) 0
x(59_872) 0
x(59_873) 0
x(59_874) 0
x(59_875) 0
x(59_876) 0
x(59_877) 0
x(59_878) 0
x(59_879) 0
x(59_880) 0
x(59_881) 0
x(59_882) 0
x(59_883) 0
x(59_884) 0
x(59_885) 1
x(59_886) 0
x(60_887) 0
x(60_888) 0
x(60_889) 0
x(60_890) 0
x(60_891) 0
x(60_892) 0
x(60_893) 1
x(60_894) 0
x(60_895) 0
x(60_896) 0
x(60_897) 0
x(60_898) 0
x(60_899) 0
x(60_900) 0
x(60_901) 0
x(61_902) 1
x(61_903) 0
x(61_904) 0
x(61_905) 0
x(61_906) 0
x(61_907) 0
x(61_908) 0
x(61_909) 0
x(61_910) 0
x(61_911) 0
x(61_912) 0
x(62_913) 0
x(62_914) 0
x(62_915) 1
x(62_916) 0
x(62_917) 0
x(62_918) 0
x(62_919) 0
x(62_920) 0
x(62_921) 0
x(62_922) 0
x(62_923) 0
x(62_924) 0
x(62_925) 0
x(62_926) 0
x(62_927) 0
x(62_928) 0
x(62_929) 0
x(62_930) 0
x(63_931) 0
x(63_932) 0
x(63_933) 0
x(63_934) 0
x(63_935) 0
x(63_936) 0
x(63_937) 0
x(63_938) 0
x(63_939) 0
x(63_940) 0
x(63_941) 0
x(63_942) 0
x(63_943) 0
x(63_944) 1
x(63_945) 0
x(63_946) 0
x(63_947) 0
x(63_948) 0
x(63_949) 0
x(64_950) 0
x(64_951) 0
x(64_952) 0
x(64_953) 0
x(64_954) 0
x(64_955) 0
x(64_956) 0
x(64_957) 0
x(64_958) 0
x(64_959) 0
x(64_960) 0
x(64_961) 0
x(64_962) 1
x(64_963) 0
x(64_964) 0
x(64_965) 0
x(65_966) 0
x(65_967) 0
x(65_968) 0
x(65_969) 0
x(65_970) 0
x(65_971) 0
x(65_972) 0
x(65_973) 0
x(65_974) 0
x(65_975) 1
x(65_976) 0
x(65_977) 0
x(65_978) 0
x(65_979) 0
x(65_980) 0
x(65_981) 0
x(66_982) 0
x(66_983) 0
x(66_984) 0
x(66_985) 0
x(66_986) 0
x(66_987) 0
x(66_988) 1
x(66_989) 0
x(66_990) 0
x(66_991) 0
x(66_992) 0
x(66_993) 0
x(67_994) 0
x(67_995) 0
x(67_996) 0
x(67_997) 0
x(67_998) 0
x(67_999) 0
x(67_1000) 0
x(67_1001) 0
x(67_1002) 0
x(67_1003) 0
x(67_1004) 0
x(67_1005) 0
x(67_1006) 0
x(67_1007) 0
x(67_1008) 1
x(68_1009) 0
x(68_1010) 0
x(68_1011) 0
x(68_1012) 0
x(68_1013) 0
x(68_1014) 0
x(68_1015) 0
x(68_1016) 1
x(68_1017) 0
x(68_1018) 0
x(69_1019) 0
x(69_1020) 0
x(69_1021) 0
x(69_1022) 1
x(69_1023) 0
x(69_1024) 0
x(69_1025) 0
x(69_1026) 0
x(69_1027) 0
x(69_1028) 0
x(69_1029) 0
x(69_1030) 0
x(69_1031) 0
x(69_1032) 0
x(69_1033) 0
x(69_1034) 0
x(70_1035) 0
x(70_1036) 0
x(70_1037) 0
x(70_1038) 0
x(70_1039) 0
x(70_1040) 0
x(70_1041) 0
x(70_1042) 0
x(70_1043) 0
x(70_1044) 0
x(70_1045) 0
x(70_1046) 0
x(70_1047) 0
x(70_1048) 1
x(70_1049) 0
x(71_1050) 0
x(71_1051) 0
x(71_1052) 0
x(71_1053) 0
x(71_1054) 0
x(71_1055) 0
x(71_1056) 0
x(71_1057) 0
x(71_1058) 0
x(71_1059) 0
x(71_1060) 1
x(72_1061) 0
x(72_1062) 0
x(72_1063) 0
x(72_1064) 0
x(72_1065) 0
x(72_1066) 0
x(72_1067) 0
x(72_1068) 0
x(72_1069) 0
x(72_1070) 0
x(72_1071) 0
x(72_1072) 0
x(72_1073) 0
x(72_1074) 0
x(72_1075) 1
x(72_1076) 0
x(73_1077) 0
x(73_1078) 0
x(73_1079) 0
x(73_1080) 0
x(73_1081) 0
x(73_1082) 1
x(73_1083) 0
x(73_1084) 0
x(73_1085) 0
x(73_1086) 0
x(73_1087) 0
x(73_1088) 0
x(73_1089) 0
x(74_1090) 0
x(74_1091) 0
x(74_1092) 1
x(74_1093) 0
x(74_1094) 0
x(74_1095) 0
x(74_1096) 0
x(74_1097) 0
x(74_1098) 0
x(74_1099) 0
x(74_1100) 0
x(74_1101) 0
x(74_1102) 0
x(74_1103) 0
x(74_1104) 0
x(74_1105) 0
x(74_1106) 0
x(75_1107) 0
x(75_1108) 0
x(75_1109) 0
x(75_1110) 0
x(75_1111) 1
x(75_1112) 0
x(75_1113) 0
x(75_1114) 0
x(75_1115) 0
x(75_1116) 0
x(75_1117) 0
x(75_1118) 0
x(76_1119) 0
x(76_1120) 0
x(76_1121) 1
x(76_1122) 0
x(76_1123) 0
x(76_1124) 0
x(76_1125) 0
x(76_1126) 0
x(76_1127) 0
x(76_1128) 0
x(77_1129) 1
x(77_1130) 0
x(77_1131) 0
x(77_1132) 0
x(77_1133) 0
x(77_1134) 0
x(77_1135) 0
x(77_1136) 0
x(77_1137) 0
x(77_1138) 0
x(77_1139) 0
x(78_1140) 0
x(78_1141) 0
x(78_1142) 0
x(78_1143) 0
x(78_1144) 0
x(78_1145) 0
x(78_1146) 0
x(78_1147) 0
x(78_1148) 0
x(78_1149) 0
x(78_1150) 0
x(78_1151) 0
x(78_1152) 0
x(78_1153) 0
x(78_1154) 0
x(78_1155) 1
x(78_1156) 0
x(78_1157) 0
x(79_1158) 0
x(79_1159) 0
x(79_1160) 0
x(79_1161) 1
x(79_1162) 0
x(79_1163) 0
x(79_1164) 0
x(79_1165) 0
x(79_1166) 0
x(79_1167) 0
x(79_1168) 0
x(79_1169) 0
x(79_1170) 0
x(79_1171) 0
x(79_1172) 0
x(79_1173) 0
x(79_1174) 0
x(79_1175) 0
x(79_1176) 0
x(80_1177) 0
x(80_1178) 0
x(80_1179) 0
x(80_1180) 0
x(80_1181) 0
x(80_1182) 0
x(80_1183) 0
x(80_1184) 0
x(80_1185) 0
x(80_1186) 1
x(80_1187) 0
x(80_1188) 0
x(81_1189) 0
x(81_1190) 0
x(81_1191) 0
x(81_1192) 1
x(81_1193) 0
x(81_1194) 0
x(81_1195) 0
x(81_1196) 0
x(81_1197) 0
x(81_1198) 0
x(81_1199) 0
x(81_1200) 0
x(82_1201) 0
x(82_1202) 0
x(82_1203) 0
x(82_1204) 0
x(82_1205) 0
x(82_1206) 0
x(82_1207) 1
x(82_1208) 0
x(82_1209) 0
x(82_1210) 0
x(82_1211) 0
x(83_1212) 0
x(83_1213) 0
x(83_1214) 0
x(83_1215) 0
x(83_1216) 0
x(83_1217) 0
x(83_1218) 0
x(83_1219) 0
x(83_1220) 0
x(83_1221) 0
x(83_1222) 0
x(83_1223) 0
x(83_1224) 1
x(83_1225) 0
x(83_1226) 0
x(83_1227) 0
x(83_1228) 0
x_1_0 4.3874389102077112e+02
s_1_0 0
z_1_0 9.9561256108979235e-01
x_1_1 4.3616023823477735e+02
s_1_1 0
z_1_1 9.9563839761765216e-01
x_1_2 0
s_1_2 8.8577358657494187e-01
z_1_2 1
x_1_3 4.3985468868773023e+02
s_1_3 0
z_1_3 9.9560145311312276e-01
x_1_4 4.3942815065196191e+02
s_1_4 0
z_1_4 9.9560571849348034e-01
x_1_5 4.3420537366849021e+02
s_1_5 0
z_1_5 9.9565794626331516e-01
x_1_6 4.3470521265873685e+02
s_1_6 0
z_1_6 9.9565294787341263e-01
x_1_7 4.3965421865426470e+02
s_1_7 0
z_1_7 9.9560345781345738e-01
x_1_8 4.3459753422392532e+02
s_1_8 0
z_1_8 9.9565402465776076e-01
x_1_9 0
s_1_9 1.1792506470810622e+00
z_1_9 1
x_1_10 0
s_1_10 1.2569050836536917e+00
z_1_10 1
x_1_11 0
s_1_11 2.2213519464421552e+00
z_1_11 1
x_1_12 0
s_1_12 1.0038579785032198e+00
z_1_12 1
x_1_13 4.3679187124906457e+02
s_1_13 0
z_1_13 9.9563208128750935e-01
x_1_14 4.3955783344991505e+02
s_1_14 0
z_1_14 9.9560442166550089e-01
x_1_15 0
s_1_15 1.5555668454617262e+00
z_1_15 1
x_1_16 4.3968449437990785e+02
s_1_16 0
z_1_16 9.9560315505620089e-01
x_1_17 4.3598301246308256e+02
s_1_17 0
z_1_17 9.9564016987536919e-01
x_1_18 4.3493400538923743e+02
s_1_18 0
z_1_18 9.9565065994610769e-01
x_1_19 4.3914732004796679e+02
s_1_19 0
z_1_19 9.9560852679952039e-01
x_1_20 4.3803987192362547e+02
s_1_20 0
z_1_20 9.9561960128076377e-01
x_1_21 0
s_1_21 1.9679542626254261e+00
z_1_21 1
x_1_22 0
s_1_22 5.4738374896987807e-01
z_1_22 1
x_1_23 0
s_1_23 1.5653177383064758e+00
z_1_23 1
x_1_24 4.9999622166295434e+04
s_1_24 5.0000377833704566e+04
z_1_24 5.0000377833704568e-01
x_1_25 0
s_1_25 5.5506816337583587e-01
z_1_25 1
x_1_26 4.3992115081381053e+02
s_1_26 0
z_1_26 0.995600788491862
x_1_27 0
s_1_27 1.4872757138509769e+00
z_1_27 1
x_1_28 0
s_1_28 1.4940598459943430e+00
z_1_28 1
x_1_29 0
s_1_29 9.8444504023063928e-01
z_1_29 1
x_1_30 4.3656123323319480e+02
s_1_30 0
z_1_30 9.9563438766766810e-01
x_1_31 0
s_1_31 1.5597064658650197e+00
z_1_31 1
x_1_32 0
s_1_32 0.877077502605971
z_1_32 1
x_1_33 0
s_1_33 8.3267499686917290e-01
z_1_33 1
x_1_34 0
s_1_34 1.4754800269438419e+00
z_1_34 1
x_1_35 0
s_1_35 1.0243600025132764e+00
z_1_35 1
x_1_36 0
s_1_36 1.1398333783872658e+00
z_1_36 1
x_1_37 4.3444568943805643e+02
s_1_37 0
z_1_37 9.9565554310561943e-01
x_1_38 0
s_1_38 9.2540567537798779e-01
z_1_38 1
x_1_39 0
s_1_39 1.4363008389482275e+00
z_1_39 1
x_1_40 0
s_1_40 4.8645903167198412e-01
z_1_40 1
x_1_41 0
s_1_41 6.7723096886766143e-01
z_1_41 1
x_1_42 4.3755128534301184e+02
s_1_42 0
z_1_42 9.9562448714656993e-01
x_1_43 4.3454637822136283e+02
s_1_43 0
z_1_43 9.9565453621778632e-01
x_1_44 4.3959026780351996e+02
s_1_44 0
z_1_44 9.9560409732196475e-01
x_1_45 4.3524295120890019e+02
s_1_45 0
z_1_45 0.995647570487911
x_1_46 4.3764667650684714e+02
s_1_46 0
z_1_46 9.9562353323493147e-01
x_1_47 0
s_1_47 1.4631321742199361e+00
z_1_47 1
x_1_48 4.3752492448315024e+02
s_1_48 0
z_1_48 9.9562475075516854e-01
x_1_49 4.3761776810011361e+02
s_1_49 0
z_1_49 9.9562382231899882e-01
x_1_50 4.3375630574446404e+02
s_1_50 0
z_1_50 9.9566243694255541e-01
x_1_51 0
s_1_51 1.1769465333636617e+00
z_1_51 1
x_1_52 4.3830450554750860e+02
s_1_52 0
z_1_52 9.9561695494452485e-01
x_1_53 4.3949175799079239e+02
s_1_53 0
z_1_53 0.995605082420092
x_1_54 4.3436216246988624e+02
s_1_54 0
z_1_54 9.9565637837530108e-01
x_1_55 4.3503642657329328e+02
s_1_55 0
z_1_55 9.9564963573426712e-01
x_1_56 4.3722735840640962e+02
s_1_56 0
z_1_56 9.9562772641593589e-01
x_1_57 4.3756013642437756e+02
s_1_57 0
z_1_57 9.9562439863575625e-01
x_1_58 0
s_1_58 4.3492549148504622e-01
z_1_58 1
x_1_59 4.3594527756632306e+02
s_1_59 0
z_1_59 9.9564054722433670e-01
x_1_60 4.3112065093405545e+02
s_1_60 0
z_1_60 9.9568879349065942e-01
x_1_61 0
s_1_61 1.7329612394387368e+00
z_1_61 1
x_1_62 4.3403670721409435e+02
s_1_62 0
z_1_62 9.9565963292785908e-01
x_1_63 0
s_1_63 1.2574573350721039e+00
z_1_63 1
x_1_64 4.3424427321925759e+02
s_1_64 0
z_1_64 9.9565755726780736e-01
x_1_65 4.3546078073141689e+02
s_1_65 0
z_1_65 9.9564539219268589e-01
x_1_66 0
s_1_66 9.7286144565441646e-01
z_1_66 1
x_1_67 0
s_1_67 6.8632104840071406e-01
z_1_67 1
x_1_68 0
s_1_68 1.3431595803122036e+00
z_1_68 1
x_1_69 0
s_1_69 1.6784016888705082e+00
z_1_69 1
x_1_70 4.3741571525018662e+02
s_1_70 0
z_1_70 9.9562584284749811e-01
x_1_71 0
s_1_71 0.53822621065774
z_1_71 1
x_1_72 4.3968692364729941e+02
s_1_72 0
z_1_72 0.995603130763527
x_1_73 4.3663489134865813e+02
s_1_73 0
z_1_73 9.9563365108651336e-01
x_1_74 4.3606423589772021e+02
s_1_74 0
z_1_74 9.9563935764102274e-01
x_1_75 0
s_1_75 1.3269770157057792e+00
z_1_75 1
x_1_76 0
s_1_76 1.189912618167
z_1_76 1
x_1_77 0
s_1_77 0.722068893170217
z_1_77 1
x_1_78 4.9999497805488936e+04
s_1_78 5.0000502194511064e+04
z_1_78 5.0000502194511065e-01
x_1_79 436.522801107727
s_1_79 0
z_1_79 9.9563477198892270e-01
x_1_80 4.3860394539963454e+02
s_1_80 0
z_1_80 9.9561396054600360e-01
x_1_81 4.3857466812804341e+02
s_1_81 0
z_1_81 9.9561425331871956e-01
x_1_82 4.3925482647864555e+02
s_1_82 0
z_1_82 9.9560745173521348e-01
x_1_83 4.3613407415384427e+02
s_1_83 0
z_1_83 9.9563865925846151e-01
x_1_84 4.3483112046774477e+02
s_1_84 0
z_1_84 9.9565168879532262e-01
x_1_85 0
s_1_85 1.3756426173204090e+00
z_1_85 1
x_1_86 4.3932097071036696e+02
s_1_86 0
z_1_86 9.9560679029289634e-01
x_1_87 0
s_1_87 1.2818435606895946e+00
z_1_87 1
x_1_88 0
s_1_88 1.10008642351022
z_1_88 1
x_1_89 0
s_1_89 1.5959154681477230e+00
z_1_89 1
x_1_90 0
s_1_90 7.0730417867889628e-01
z_1_90 1
x_1_91 4.3890274652931839e+02
s_1_91 0
z_1_91 9.9561097253470687e-01
x_1_92 437.266687377356
s_1_92 0
z_1_92 9.9562733312622642e-01
x_1_93 0
s_1_93 1.4194522171492281e+00
z_1_93 1
x_1_94 0
s_1_94 1.7532266202906612e+00
z_1_94 1
x_1_95 438.357541391626
s_1_95 0
z_1_95 9.9561642458608368e-01
x_1_96 4.3691551168542355e+02
s_1_96 0
z_1_96 9.9563084488314579e-01
x_1_97 4.3504988625785336e+02
s_1_97 0
z_1_97 9.9564950113742146e-01
x_1_98 4.3681170054071117e+02
s_1_98 0
z_1_98 9.9563188299459282e-01
x_1_99 4.3477143545355648e+02
s_1_99 0
z_1_99 9.9565228564546449e-01
x_1_100 0
s_1_100 7.2591749865523525e-01
z_1_100 1
x_1_101 4.9999053304818139e+04
s_1_101 5.0000946695181861e+04
z_1_101 5.0000946695181858e-01
x_1_102 0
s_1_102 1.3598323350597639e+00
z_1_102 1
x_1_103 0
s_1_103 8.2669716724194586e-01
z_1_103 1
x_1_104 4.9999183384562173e+04
s_1_104 5.0000816615437827e+04
z_1_104 5.0000816615437826e-01
x_1_105 0
s_1_105 1.7378854442649754e+00
z_1_105 1
x_1_106 0
s_1_106 6.6472978517413139e-01
z_1_106 1
x_1_107 0
s_1_107 1.2732173201657133e+00
z_1_107 1
x_1_108 4.3887040832312778e+02
s_1_108 0
z_1_108 9.9561129591676867e-01
x_1_109 4.3453811342455447e+02
s_1_109 0
z_1_109 9.9565461886575446e-01
x_1_110 0
s_1_110 1.8770881721284240e+00
z_1_110 1
x_1_111 0
s_1_111 1.1697498107969295e+00
z_1_111 1
x_1_112 0
s_1_112 9.3620700696919812e-01
z_1_112 1
x_1_113 0
s_1_113 8.8995231052103918e-01
z_1_113 1
x_1_114 436.188584710937
s_1_114 0
z_1_114 9.9563811415289061e-01
x_1_115 4.3694455760903656e+02
s_1_115 0
z_1_115 9.9563055442390958e-01
x_1_116 4.3771845047776878e+02
s_1_116 0
z_1_116 9.9562281549522236e-01
x_1_117 4.3650351799838245e+02
s_1_117 0
z_1_117 9.9563496482001612e-01
x_1_118 4.9999813336169173e+04
s_1_118 5.0000186663830820e+04
z_1_118 5.0000186663830826e-01
x_1_119 4.3592213611118495e+02
s_1_119 0
z_1_119 9.9564077863888811e-01
x_1_120 4.3460730635561049e+02
s_1_120 0
z_1_120 9.9565392693644383e-01
x_1_121 0
s_1_121 1.5835948828244
z_1_121 1
x_1_122 49999.4285751858
s_1_122 50000.5714248142
z_1_122 0.500005714248142
x_1_123 0
s_1_123 1.5515031577087939e+00
z_1_123 1
x_1_124 4.3638847260753391e+02
s_1_124 0
z_1_124 9.9563611527392459e-01
x_1_125 4.3856565480562858e+02
s_1_125 0
z_1_125 9.9561434345194377e-01
x_1_126 0
s_1_126 1.2554814085597172e+00
z_1_126 1
x_1_127 0
s_1_127 1.1823097829474136e+00
z_1_127 1
x_1_128 4.3627666452342237e+02
s_1_128 0
z_1_128 9.9563723335476584e-01
x_1_129 0
s_1_129 1.5132363160519162e+00
z_1_129 1
x_1_130 437.182415706091
s_1_130 0
z_1_130 9.9562817584293906e-01
x_1_131 0
s_1_131 9.5784846867900342e-01
z_1_131 1
x_1_132 4.3645591579144821e+02
s_1_132 0
z_1_132 9.9563544084208555e-01
x_1_133 4.3425695090740919e+02
s_1_133 0
z_1_133 9.9565743049092592e-01
x_1_134 0
s_1_134 1.0298359635926317e+00
z_1_134 1
x_1_135 4.3892831027031934e+02
s_1_135 0
z_1_135 9.9561071689729685e-01
x_1_136 4.3593644474120811e+02
s_1_136 0
z_1_136 9.9564063555258786e-01
x_1_137 4.3959086599061266e+02
s_1_137 0
z_1_137 9.9560409134009387e-01
x_1_138 4.3628559953114018e+02
s_1_138 0
z_1_138 9.9563714400468861e-01
x_1_139 4.3477740960789379e+02
s_1_139 0
z_1_139 0.995652225903921
x_1_140 0
s_1_140 1.30673076993844
z_1_140 1
x_1_141 0
s_1_141 5.7106267710332759e-01
z_1_141 1
x_1_142 4.3826442353252787e+02
s_1_142 0
z_1_142 9.9561735576467469e-01
x_1_143 4.3871285975097271e+02
s_1_143 0
z_1_143 9.9561287140249033e-01
x_1_144 4.3456880785606336e+02
s_1_144 0
z_1_144 9.9565431192143938e-01
x_1_145 0
s_1_145 1.2983943264989648e+00
z_1_145 1
x_1_146 4.3988165944628417e+02
s_1_146 0
z_1_146 9.9560118340553716e-01
x_1_147 4.3855044438503683e+02
s_1_147 0
z_1_147 9.9561449555614967e-01
x_1_148 4.3965680416690884e+02
s_1_148 0
z_1_148 9.9560343195833090e-01
x_1_149 0
s_1_149 1.1391498689627042e+00
z_1_149 1
x_1_150 0
s_1_150 1.2597229587845504e+00
z_1_150 1
x_1_151 0
s_1_151 8.2846293538750615e-01
z_1_151 1
x_1_152 0
s_1_152 8.8593843777198344e-01
z_1_152 1
x_1_153 0
s_1_153 1.0054462518310174e+00
z_1_153 1
x_1_154 0
s_1_154 6.1258771988650551e-01
z_1_154 1
x_1_155 4.3497928752750158e+02
s_1_155 0
z_1_155 0.995650207124725
x_1_156 4.3742977436434012e+02
s_1_156 0
z_1_156 9.9562570225635660e-01
x_1_157 4.3951391929201782e+02
s_1_157 0
z_1_157 9.9560486080707988e-01
x_1_158 4.3707867196854204e+02
s_1_158 0
z_1_158 9.9562921328031462e-01
x_1_159 4.3426690653152764e+02
s_1_159 0
z_1_159 9.9565733093468467e-01
x_2_0 2.8343868784783530e+05
